NAME: rand_1/map3_72
TYPE: TSP
COMMENT: autogenerated using a wonderful map creator
DIMENSION: 96
EDGE_WEIGHT_TYPE: EUC_2D
NODE_COORD_SECTION
1 78.0 4.0
2 3.0 2.0
3 81.0 2.0
4 4.0 6.0
5 78.0 9.0
6 79.0 6.0
7 2.0 7.0
8 78.0 8.0
9 78.0 7.0
10 1.0 5.0
11 78.0 1.0
12 4.0 5.0
13 4.0 3.0
14 82.0 3.0
15 4.0 4.0
16 81.0 8.0
17 81.0 3.0
18 79.0 1.0
19 3.0 5.0
20 3.0 3.0
21 80.0 3.0
22 2.0 5.0
23 2.0 8.0
24 2.0 4.0
25 1.0 4.0
26 3.0 6.0
27 5.0 9.0
28 78.0 5.0
29 81.0 1.0
30 2.0 1.0
31 5.0 5.0
32 1.0 2.0
33 80.0 4.0
34 3.0 1.0
35 1.0 7.0
36 81.0 9.0
37 82.0 6.0
38 4.0 8.0
39 79.0 4.0
40 82.0 1.0
41 80.0 8.0
42 78.0 6.0
43 78.0 3.0
44 4.0 2.0
45 79.0 7.0
46 79.0 3.0
47 3.0 7.0
48 79.0 5.0
49 55.0 2.0
50 42.0 2.0
51 9.0 8.0
52 46.0 2.0
53 48.0 8.0
54 15.0 5.0
55 70.0 2.0
56 37.0 8.0
57 28.0 5.0
58 30.0 2.0
59 32.0 5.0
60 45.0 5.0
61 36.0 2.0
62 7.0 5.0
63 71.0 8.0
64 73.0 5.0
65 53.0 2.0
66 18.0 5.0
67 62.0 5.0
68 64.0 2.0
69 20.0 8.0
70 22.0 5.0
71 36.0 4.0
72 31.0 8.0
73 75.0 5.0
74 13.0 5.0
75 25.0 4.0
76 47.0 6.0
77 37.0 5.0
78 58.0 3.0
79 45.0 2.0
80 23.0 8.0
81 58.0 5.0
82 7.0 2.0
83 7.0 8.0
84 40.0 8.0
85 31.0 5.0
86 14.0 7.0
87 33.0 5.0
88 24.0 2.0
89 57.0 8.0
90 41.0 2.0
91 30.0 8.0
92 65.0 5.0
93 76.0 5.0
94 14.0 2.0
95 58.0 2.0
96 36.0 8.0
97 71.0 2.0
98 73.0 8.0
99 29.0 5.0
100 14.0 4.0
101 55.0 5.0
102 69.0 4.0
103 42.0 5.0
104 44.0 2.0
105 11.0 8.0
106 46.0 5.0
107 68.0 5.0
108 39.0 8.0
109 14.0 6.0
110 58.0 6.0
111 47.0 3.0
112 61.0 2.0
113 17.0 8.0
114 76.0 2.0
115 32.0 8.0
116 45.0 8.0
117 36.0 5.0
118 51.0 5.0
119 49.0 5.0
120 18.0 8.0
START_DEPOT_SECTION
1
2
3
4
5
6
7
8
9
10
11
12
13
14
15
16
17
18
19
20
21
22
23
24
-1
END_DEPOT_SECTION
25
26
27
28
29
30
31
32
33
34
35
36
37
38
39
40
41
42
43
44
45
46
47
48
-1
EOF
